NAME: n400q25C.tsp, 400 nodes, semilla 222
COMMENT: Problema aleatorio de norma euclidea
DIMENSION: 400
CAPACITY: 25
EDGE_WEIGHT_TYPE: EUC_2D
NODE_COORD_SECTION
1   0.0000   0.0000
2 302.0000 264.0000
3 -191.0000 -343.0000
4  64.0000 431.0000
5 -477.0000 -298.0000
6 -270.0000 -492.0000
7 -388.0000 287.0000
8  50.0000 274.0000
9 -378.0000 498.0000
10 186.0000  32.0000
11 -455.0000 -299.0000
12 -480.0000 -417.0000
13 -216.0000 112.0000
14  41.0000 -213.0000
15  95.0000 -480.0000
16 -488.0000 208.0000
17 -376.0000 -203.0000
18  97.0000 -161.0000
19 -370.0000 325.0000
20 -77.0000 -263.0000
21 -479.0000 -310.0000
22 -115.0000 -237.0000
23  84.0000 -246.0000
24 -240.0000 242.0000
25 147.0000 -289.0000
26 -387.0000 273.0000
27 417.0000  54.0000
28   9.0000 -111.0000
29 -367.0000 243.0000
30 198.0000 -351.0000
31 -205.0000 205.0000
32 -244.0000 -58.0000
33 -15.0000 157.0000
34 -136.0000 -284.0000
35 -222.0000  61.0000
36 483.0000 333.0000
37 -249.0000 -81.0000
38 134.0000 -230.0000
39  85.0000 -261.0000
40   4.0000  24.0000
41 -446.0000 333.0000
42  90.0000  52.0000
43 275.0000 414.0000
44 -206.0000 371.0000
45 181.0000 -382.0000
46 -146.0000 -45.0000
47 475.0000 -405.0000
48 -189.0000 -394.0000
49 384.0000 500.0000
50 -493.0000  -8.0000
51 -51.0000 -280.0000
52 -448.0000  94.0000
53 -379.0000 -453.0000
54 462.0000  33.0000
55 -450.0000 -215.0000
56 -392.0000 380.0000
57 283.0000 158.0000
58 -362.0000 402.0000
59 184.0000 -331.0000
60 -467.0000  28.0000
61 -370.0000 -378.0000
62 264.0000 -238.0000
63 -480.0000 -350.0000
64 -339.0000 399.0000
65 437.0000 -472.0000
66 -61.0000 170.0000
67 -426.0000 453.0000
68 403.0000 -86.0000
69 -110.0000 -281.0000
70 396.0000 -71.0000
71 -383.0000 -269.0000
72 -212.0000 253.0000
73 430.0000 496.0000
74 -173.0000 -469.0000
75 480.0000 -228.0000
76 114.0000 116.0000
77  66.0000 389.0000
78 460.0000 301.0000
79 354.0000 -142.0000
80 -245.0000 314.0000
81 415.0000 -373.0000
82 383.0000 163.0000
83 -409.0000  14.0000
84 235.0000 -55.0000
85 439.0000 -436.0000
86 -456.0000 474.0000
87 -76.0000  19.0000
88 -82.0000 -317.0000
89 -326.0000 341.0000
90 304.0000  54.0000
91 163.0000 -495.0000
92 -185.0000 221.0000
93 -70.0000 272.0000
94  90.0000 -323.0000
95 -167.0000 -157.0000
96 -299.0000 -330.0000
97 -57.0000 396.0000
98 -393.0000 290.0000
99 -330.0000 -14.0000
100 176.0000 132.0000
101 268.0000 120.0000
102 -477.0000 -373.0000
103 384.0000 384.0000
104  72.0000 -33.0000
105 -184.0000 132.0000
106 -275.0000 460.0000
107  41.0000 -211.0000
108  78.0000 -355.0000
109 -218.0000 -232.0000
110  43.0000 402.0000
111 -148.0000 -474.0000
112 -199.0000 -28.0000
113 -466.0000 -350.0000
114  -4.0000 -24.0000
115 -316.0000 321.0000
116 -485.0000 443.0000
117 497.0000 413.0000
118  28.0000 453.0000
119 -427.0000 466.0000
120 -215.0000 -111.0000
121  80.0000  61.0000
122 -405.0000 412.0000
123 -111.0000  73.0000
124 -193.0000 484.0000
125 -466.0000 427.0000
126  54.0000 -141.0000
127 276.0000 193.0000
128 -247.0000  52.0000
129 282.0000 423.0000
130 -364.0000 -179.0000
131  81.0000 266.0000
132   3.0000 -131.0000
133 134.0000 -87.0000
134  67.0000 192.0000
135 -357.0000 433.0000
136 218.0000 -439.0000
137 -30.0000 231.0000
138 -39.0000 -321.0000
139 -12.0000 403.0000
140 -400.0000 -373.0000
141 -478.0000 179.0000
142 403.0000 -391.0000
143 474.0000 429.0000
144 -284.0000 -235.0000
145 -61.0000 426.0000
146   2.0000 -168.0000
147 -28.0000 -97.0000
148 -216.0000 -109.0000
149   2.0000 -154.0000
150 192.0000 -277.0000
151 -287.0000 -179.0000
152 -238.0000 -187.0000
153 414.0000 268.0000
154 415.0000 -28.0000
155 -414.0000 429.0000
156 -317.0000 -319.0000
157 361.0000 -297.0000
158 -85.0000 -149.0000
159 -452.0000 187.0000
160 -221.0000  -9.0000
161  75.0000 123.0000
162 107.0000 -111.0000
163 -257.0000 447.0000
164 467.0000 316.0000
165 351.0000 347.0000
166 500.0000 -202.0000
167 105.0000 230.0000
168 433.0000  40.0000
169 -308.0000 -293.0000
170 -138.0000 -356.0000
171 203.0000 -371.0000
172 -257.0000 352.0000
173 -140.0000 -337.0000
174 -275.0000 -38.0000
175 106.0000 250.0000
176 189.0000 100.0000
177 -88.0000 194.0000
178 -23.0000 -182.0000
179 280.0000 -357.0000
180 -413.0000 -327.0000
181 243.0000 -465.0000
182 -66.0000 -118.0000
183 177.0000 -372.0000
184 -289.0000 -344.0000
185 203.0000 300.0000
186 -483.0000 -313.0000
187  95.0000 -451.0000
188 165.0000 -171.0000
189 -357.0000 -134.0000
190 -487.0000 421.0000
191 494.0000   1.0000
192 -342.0000  17.0000
193 -436.0000 463.0000
194 483.0000 -224.0000
195 208.0000 369.0000
196  72.0000 -183.0000
197 -369.0000 -20.0000
198 -321.0000   7.0000
199 258.0000 279.0000
200 -227.0000 -435.0000
201 468.0000 -217.0000
202 140.0000 500.0000
203 485.0000 -133.0000
204 -276.0000 -438.0000
205 -242.0000 410.0000
206  40.0000 117.0000
207 254.0000 354.0000
208 -478.0000 -71.0000
209 189.0000 274.0000
210 -191.0000 -130.0000
211 -113.0000 -198.0000
212  82.0000 325.0000
213 123.0000   1.0000
214 -235.0000 -84.0000
215 -52.0000 -185.0000
216 418.0000 233.0000
217 359.0000 341.0000
218  36.0000 -413.0000
219 -130.0000 -439.0000
220 124.0000  23.0000
221 301.0000 -466.0000
222 -391.0000 346.0000
223 -493.0000 124.0000
224 118.0000  42.0000
225 -396.0000 188.0000
226 148.0000 -158.0000
227 180.0000 -282.0000
228 402.0000 101.0000
229 -394.0000  62.0000
230 -462.0000  -6.0000
231  46.0000 -68.0000
232 447.0000 377.0000
233 -364.0000 372.0000
234 -412.0000 166.0000
235 -286.0000 438.0000
236  70.0000  11.0000
237  23.0000 230.0000
238  68.0000 -421.0000
239 -195.0000 422.0000
240 -363.0000 124.0000
241 -488.0000 443.0000
242 -461.0000  76.0000
243 153.0000 -274.0000
244  47.0000 -232.0000
245 -70.0000 147.0000
246 118.0000 -271.0000
247 -374.0000 -73.0000
248 282.0000 -488.0000
249 -358.0000 -275.0000
250 -276.0000 322.0000
251 -15.0000 -94.0000
252 352.0000  47.0000
253 -202.0000 -62.0000
254 -423.0000 392.0000
255 204.0000 -270.0000
256 -496.0000 -104.0000
257 -29.0000 264.0000
258 -433.0000 365.0000
259 -324.0000 -200.0000
260 426.0000 -257.0000
261 -243.0000 152.0000
262 -64.0000 -448.0000
263 -274.0000 -74.0000
264  45.0000 -365.0000
265 147.0000 233.0000
266 -316.0000 -214.0000
267 155.0000 205.0000
268 229.0000 -325.0000
269 -384.0000 -454.0000
270 -159.0000   3.0000
271 496.0000  55.0000
272  69.0000 406.0000
273 -381.0000 -212.0000
274 -410.0000 373.0000
275  54.0000 445.0000
276 -126.0000   1.0000
277 104.0000 494.0000
278 -264.0000 -465.0000
279 427.0000 -109.0000
280 -448.0000  77.0000
281 -267.0000 406.0000
282 485.0000 460.0000
283 -337.0000 -57.0000
284 418.0000  -2.0000
285 -178.0000 -305.0000
286 -357.0000 105.0000
287 -256.0000 309.0000
288 -154.0000 -43.0000
289 -479.0000 437.0000
290 -414.0000 -293.0000
291 -369.0000 302.0000
292 -273.0000 239.0000
293 411.0000 -269.0000
294 -426.0000 -377.0000
295 241.0000 -388.0000
296 -223.0000 116.0000
297 -127.0000 -258.0000
298 222.0000 -416.0000
299 223.0000 256.0000
300  33.0000 -392.0000
301 -121.0000 -297.0000
302 312.0000 429.0000
303 214.0000 -300.0000
304 -493.0000 -354.0000
305 -443.0000 -219.0000
306   3.0000  80.0000
307 -281.0000  74.0000
308 -359.0000 -288.0000
309 -67.0000 -56.0000
310 282.0000 -296.0000
311 -280.0000 251.0000
312 -374.0000 360.0000
313 391.0000 -49.0000
314 304.0000 -121.0000
315 -255.0000 -352.0000
316 113.0000 -109.0000
317 373.0000 -429.0000
318 -49.0000 -51.0000
319 208.0000  37.0000
320 -46.0000  56.0000
321 263.0000 138.0000
322 439.0000 379.0000
323 365.0000  64.0000
324 273.0000 165.0000
325 -416.0000 -107.0000
326 -459.0000 -231.0000
327 -385.0000 263.0000
328 -301.0000 -326.0000
329  -2.0000 427.0000
330 -318.0000 -367.0000
331 414.0000 455.0000
332 162.0000 484.0000
333 238.0000 -412.0000
334 -488.0000 -255.0000
335 231.0000 190.0000
336 253.0000 332.0000
337 -242.0000 278.0000
338 200.0000 133.0000
339 123.0000 -358.0000
340 206.0000 -99.0000
341  90.0000 -213.0000
342  39.0000 219.0000
343 -281.0000 -297.0000
344 -478.0000 -54.0000
345 -472.0000 312.0000
346  84.0000 381.0000
347 -83.0000 -155.0000
348 309.0000 -410.0000
349  67.0000 184.0000
350 -277.0000 -230.0000
351 290.0000 400.0000
352 -141.0000 105.0000
353  52.0000 183.0000
354 -27.0000 -491.0000
355 279.0000   7.0000
356 184.0000 482.0000
357 -396.0000 -416.0000
358 -458.0000 397.0000
359 256.0000 229.0000
360 -447.0000  87.0000
361 395.0000 -336.0000
362 -146.0000 -308.0000
363 144.0000 355.0000
364 -87.0000 126.0000
365  36.0000 -455.0000
366 -375.0000 456.0000
367 -101.0000 -29.0000
368 461.0000 -200.0000
369 271.0000 -481.0000
370 455.0000 -148.0000
371 -374.0000 495.0000
372 -120.0000 257.0000
373 -138.0000 158.0000
374 -100.0000 216.0000
375 258.0000 -208.0000
376 -361.0000  34.0000
377 -328.0000 290.0000
378 -423.0000 381.0000
379 253.0000  47.0000
380 262.0000 343.0000
381 441.0000 -235.0000
382 -431.0000  34.0000
383 304.0000 -192.0000
384 138.0000 -367.0000
385 -336.0000 469.0000
386 189.0000 378.0000
387 -308.0000 201.0000
388 -339.0000 300.0000
389 -281.0000 -101.0000
390 432.0000  67.0000
391 -43.0000 480.0000
392 -371.0000 -486.0000
393  15.0000 214.0000
394 452.0000 -399.0000
395 -90.0000 123.0000
396 -499.0000 -25.0000
397 -302.0000 230.0000
398 219.0000 217.0000
399 490.0000 -355.0000
400 434.0000  75.0000
DISPLAY_DATA_SECTION:
 1  250  250
 2  401  382
 3  154   78
 4  282  465
 5   11  101
 6  115    4
 7   56  393
 8  275  387
 9   61  499
10  343  266
11   22  100
12   10   41
13  142  306
14  270  143
15  297   10
16    6  354
17   62  148
18  298  169
19   65  412
20  211  118
21   10   95
22  192  131
23  292  127
24  130  371
25  323  105
26   56  386
27  458  277
28  254  194
29   66  371
30  349   74
31  147  352
32  128  221
33  242  328
34  182  108
35  139  280
36  491  416
37  125  209
38  317  135
39  292  119
40  252  262
41   27  416
42  295  276
43  387  457
44  147  435
45  340   59
46  177  227
47  487   47
48  155   53
49  442  500
50    3  246
51  224  110
52   26  297
53   60   23
54  481  266
55   25  142
56   54  440
57  391  329
58   69  451
59  342   84
60   16  264
61   65   61
62  382  131
63   10   75
64   80  449
65  468   14
66  219  335
67   37  476
68  451  207
69  195  109
70  448  214
71   58  115
72  144  376
73  465  498
74  163   15
75  490  136
76  307  308
77  283  444
78  480  400
79  427  179
80  127  407
81  457   63
82  441  331
83   45  257
84  367  222
85  469   32
86   22  487
87  212  259
88  209   91
89   87  420
90  402  277
91  331    2
92  157  360
93  215  386
94  295   88
95  166  171
96  100   85
97  221  448
98   53  395
99   85  243
100  338  316
101  384  310
102   11   63
103  442  442
104  286  233
105  158  316
106  112  480
107  270  144
108  289   72
109  141  134
110  271  451
111  176   13
112  150  236
113   17   75
114  248  238
115   92  410
116    7  471
117  498  456
118  264  476
119   36  483
120  142  194
121  290  280
122   47  456
123  194  286
124  153  492
125   17  463
126  277  179
127  388  346
128  126  276
129  391  461
130   68  160
131  290  383
132  251  184
133  317  206
134  283  346
135   71  466
136  359   30
137  235  365
138  230   89
139  244  451
140   50   63
141   11  339
142  451   54
143  487  464
144  108  132
145  219  463
146  251  166
147  236  201
148  142  195
149  251  173
150  346  111
151  106  160
152  131  156
153  457  384
154  457  236
155   43  464
156   91   90
157  430  101
158  207  175
159   24  343
160  139  245
161  287  311
162  303  194
163  121  473
164  483  408
165  425  423
166  500  149
167  302  365
168  466  270
169   96  103
170  181   72
171  351   64
172  121  426
173  180   81
174  112  231
175  303  375
176  344  300
177  206  347
178  238  159
179  390   71
180   43   86
181  371   17
182  217  191
183  338   64
184  105   78
185  351  400
186    8   93
187  297   24
188  332  164
189   71  183
190    6  460
191  497  250
192   79  258
193   32  481
194  491  138
195  354  434
196  286  158
197   65  240
198   89  253
199  379  389
200  136   32
201  484  141
202  320  500
203  492  183
204  112   31
205  129  455
206  270  308
207  377  427
208   11  214
209  344  387
210  154  185
211  193  151
212  291  412
213  311  250
214  132  208
215  224  157
216  459  366
217  429  420
218  268   43
219  185   30
220  312  261
221  400   17
222   54  423
223    3  312
224  309  271
225   52  344
226  324  171
227  340  109
228  451  300
229   53  281
230   19  247
231  273  216
232  473  438
233   68  436
234   44  333
235  107  469
236  285  255
237  261  365
238  284   39
239  152  461
240   68  312
241    6  471
242   19  288
243  326  113
244  273  134
245  215  323
246  309  114
247   63  213
248  391    6
249   71  112
250  112  411
251  242  203
252  426  273
253  149  219
254   38  446
255  352  115
256    2  198
257  235  382
258   33  432
259   88  150
260  463  121
261  128  326
262  218   26
263  113  213
264  272   67
265  323  366
266   92  143
267  327  352
268  364   87
269   58   23
270  170  251
271  498  277
272  284  453
273   59  144
274   45  436
275  277  472
276  187  250
277  302  497
278  118   17
279  463  195
280   26  288
281  116  453
282  492  480
283   81  221
284  459  249
285  161   97
286   71  302
287  122  404
288  173  228
289   10  468
290   43  103
291   65  401
292  113  369
293  455  115
294   37   61
295  370   56
296  138  308
297  186  121
298  361   42
299  361  378
300  266   54
301  189  101
302  406  464
303  357  100
304    3   73
305   28  140
306  251  290
307  109  287
308   70  106
309  216  222
310  391  102
311  110  375
312   63  430
313  445  225
314  402  189
315  122   74
316  306  195
317  436   35
318  225  224
319  354  268
320  227  278
321  381  319
322  469  439
323  432  282
324  386  332
325   42  196
326   20  134
327   57  381
328   99   87
329  249  463
330   91   66
331  457  477
332  331  492
333  369   44
334    6  122
335  365  345
336  376  416
337  129  389
338  350  316
339  311   71
340  353  200
341  295  143
342  269  359
343  109  101
344   11  223
345   14  406
346  292  440
347  208  172
348  404   45
349  283  342
350  111  135
351  395  450
352  179  302
353  276  341
354  236    4
355  389  253
356  342  491
357   52   42
358   21  448
359  378  364
360   26  293
361  447   82
362  177   96
363  322  427
364  206  313
365  268   22
366   62  478
367  199  235
368  480  150
369  385    9
370  477  176
371   63  497
372  190  378
373  181  329
374  200  358
375  379  146
376   69  267
377   86  395
378   38  440
379  376  273
380  381  421
381  470  132
382   34  267
383  402  154
384  319   66
385   82  484
386  344  439
387   96  350
388   80  400
389  109  199
390  466  283
391  228  490
392   64    7
393  257  357
394  476   50
395  205  311
396    0  237
397   99  365
398  359  358
399  495   72
400  467  287
DEMAND_SECTION
1 0
2 5
3 4
4 7
5 -1
6 -6
7 6
8 10
9 8
10 7
11 0
12 9
13 -9
14 -5
15 8
16 -5
17 -5
18 0
19 4
20 6
21 0
22 0
23 3
24 0
25 -7
26 9
27 0
28 8
29 0
30 0
31 9
32 0
33 0
34 4
35 -6
36 6
37 10
38 -2
39 0
40 -1
41 8
42 -6
43 -5
44 -9
45 -9
46 -8
47 -8
48 -3
49 -8
50 -10
51 1
52 6
53 8
54 -4
55 -1
56 8
57 1
58 1
59 -8
60 9
61 10
62 -5
63 3
64 4
65 3
66 5
67 7
68 -4
69 0
70 0
71 7
72 4
73 -3
74 -1
75 -3
76 -5
77 -7
78 -2
79 5
80 -9
81 5
82 -7
83 3
84 1
85 -4
86 -7
87 0
88 -7
89 1
90 -8
91 -6
92 -4
93 5
94 -4
95 -2
96 7
97 0
98 -1
99 -7
100 10
101 -5
102 0
103 -5
104 4
105 4
106 0
107 -5
108 -3
109 6
110 10
111 7
112 -3
113 0
114 -5
115 -1
116 9
117 2
118 1
119 -5
120 9
121 2
122 -9
123 8
124 -4
125 3
126 -6
127 2
128 -7
129 5
130 9
131 10
132 -6
133 5
134 10
135 -6
136 3
137 0
138 9
139 -9
140 -2
141 7
142 0
143 -2
144 -7
145 -6
146 6
147 2
148 -8
149 1
150 -1
151 -3
152 5
153 5
154 6
155 8
156 0
157 -9
158 5
159 6
160 3
161 -1
162 6
163 -4
164 -2
165 0
166 1
167 3
168 9
169 0
170 -1
171 6
172 -3
173 1
174 -4
175 6
176 5
177 0
178 -3
179 -1
180 -1
181 -1
182 3
183 -7
184 -5
185 -9
186 -9
187 -1
188 -9
189 5
190 -3
191 6
192 -1
193 4
194 -1
195 4
196 -1
197 -8
198 -6
199 7
200 10
201 -4
202 -9
203 -5
204 -1
205 -3
206 -5
207 9
208 0
209 -1
210 -3
211 10
212 -4
213 -6
214 9
215 -6
216 -3
217 0
218 2
219 -6
220 -1
221 5
222 8
223 0
224 -2
225 -2
226 2
227 -5
228 0
229 0
230 -5
231 -4
232 10
233 3
234 -2
235 7
236 -9
237 -7
238 7
239 -3
240 -8
241 7
242 3
243 0
244 8
245 8
246 -7
247 7
248 3
249 10
250 3
251 0
252 -3
253 -9
254 -5
255 1
256 2
257 6
258 -3
259 6
260 7
261 5
262 10
263 -4
264 1
265 7
266 0
267 9
268 -8
269 0
270 0
271 -2
272 -5
273 -6
274 -9
275 -7
276 -1
277 -6
278 -7
279 -4
280 -4
281 -6
282 0
283 0
284 -6
285 -7
286 5
287 -4
288 -1
289 -8
290 -1
291 3
292 -2
293 -6
294 6
295 10
296 6
297 -7
298 7
299 0
300 -5
301 3
302 -4
303 -3
304 8
305 -2
306 3
307 -4
308 7
309 0
310 -9
311 -6
312 -1
313 8
314 -2
315 -3
316 -9
317 -5
318 0
319 0
320 -2
321 9
322 -1
323 -6
324 -3
325 9
326 0
327 3
328 7
329 -8
330 4
331 8
332 -4
333 0
334 6
335 -1
336 -10
337 -9
338 -7
339 1
340 0
341 5
342 4
343 8
344 5
345 -2
346 -4
347 -2
348 8
349 -2
350 -7
351 4
352 -8
353 -6
354 -1
355 -7
356 -6
357 8
358 -8
359 -4
360 0
361 4
362 8
363 4
364 10
365 5
366 4
367 -6
368 9
369 10
370 -1
371 -7
372 0
373 -10
374 0
375 -2
376 2
377 -5
378 -4
379 -9
380 -6
381 -10
382 2
383 8
384 9
385 9
386 9
387 -5
388 -2
389 0
390 0
391 -8
392 -9
393 -7
394 -4
395 -5
396 0
397 7
398 3
399 -4
400 1
EOF